;; produced by cvc5.drv ;;
(set-logic ALL)
(set-info :smt-lib-version 2.6)
;;; generated by SMT-LIB2 driver
;;; SMT-LIB2 driver: bit-vectors, common part
;;; SMT-LIB2: integer arithmetic
(declare-sort us_private 0)

(declare-const us_null_ext__ us_private)

(declare-datatypes ((int__ref 0))
  (((int__refqtmk (int__content Int)))))

;; "pow2"
(declare-fun pow2 (Int) Int)

(declare-const two_power_size_minus_one Int)

;; "two_power_size_minus_one_val"
(assert (= two_power_size_minus_one (pow2 (- 8 1))))

;; "min"
(define-fun min ((x Int) (y Int)) Int
  (ite (<= x y) x y))

;; "max"
(define-fun max ((x Int) (y Int)) Int
  (ite (<= x y) y x))

;; "Min_r"
(assert (forall ((x Int) (y Int)) (=> (<= y x) (= (min x y) y))))

;; "Max_l"
(assert (forall ((x Int) (y Int)) (=> (<= y x) (= (max x y) x))))

;; "Min_comm"
(assert (forall ((x Int) (y Int)) (= (min x y) (min y x))))

;; "Max_comm"
(assert (forall ((x Int) (y Int)) (= (max x y) (max y x))))

;; "Min_assoc"
(assert
  (forall ((x Int) (y Int) (z Int)) (= (min (min x y) z) (min x (min y z)))))

;; "Max_assoc"
(assert
  (forall ((x Int) (y Int) (z Int)) (= (max (max x y) z) (max x (max y z)))))

(declare-const two_power_size_minus_one1 Int)

;; "two_power_size_minus_one_val"
(assert (= two_power_size_minus_one1 (pow2 (- 32 1))))

(declare-sort integer 0)

;; "integer'int"
(declare-fun integerqtint (integer) Int)

;; "integer'axiom"
(assert
  (forall ((i integer))
    (and
      (<= (- 2147483648) (integerqtint i))
      (<= (integerqtint i) 2147483647))))

;; "in_range"
(define-fun in_range ((x Int)) Bool
  (and (<= (- 2147483648) x) (<= x 2147483647)))

;; "in_range"
(define-fun in_range1 ((x Int)) Bool
  (and (<= 0 x) (<= x 2147483647)))

(declare-sort positive 0)

;; "positive'int"
(declare-fun positiveqtint (positive) Int)

;; "positive'axiom"
(assert
  (forall ((i positive))
    (and (<= 1 (positiveqtint i)) (<= (positiveqtint i) 2147483647))))

;; "in_range"
(define-fun in_range2 ((x Int)) Bool
  (and (<= 1 x) (<= x 2147483647)))

(declare-datatypes ((positive__init_wrapper 0))
  (((positive__init_wrapperqtmk (rec__value positive)(us_attr__init Bool)))))

(declare-const dummy positive__init_wrapper)

;; "dummy__def"
(assert (= (us_attr__init dummy) false))

;; "to_rep"
(define-fun to_rep ((x positive)) Int
  (positiveqtint x))

;; "of_rep"
(declare-fun of_rep (Int) positive)

;; "inversion_axiom"
(assert
  (forall ((x positive))
    (! (= (of_rep (to_rep x)) x) :pattern ((to_rep x)) )))

;; "range_axiom"
(assert
  (forall ((x positive)) (! (in_range2 (to_rep x)) :pattern ((to_rep x)) )))

;; "coerce_axiom"
(assert
  (forall ((x Int))
    (! (=> (in_range2 x) (= (to_rep (of_rep x)) x)) :pattern ((to_rep
                                                                (of_rep x))) )))

(declare-sort character 0)

;; "in_range"
(define-fun in_range3 ((x Int)) Bool
  (and (<= 0 x) (<= x 255)))

(declare-datatypes ((character__init_wrapper 0))
  (((character__init_wrapperqtmk
    (rec__value1 character)(us_attr__init1 Bool)))))

(declare-const dummy1 character__init_wrapper)

;; "dummy__def"
(assert (= (us_attr__init1 dummy1) false))

;; "to_rep"
(declare-fun to_rep1 (character) Int)

;; "of_rep"
(declare-fun of_rep1 (Int) character)

;; "inversion_axiom"
(assert
  (forall ((x character))
    (! (= (of_rep1 (to_rep1 x)) x) :pattern ((to_rep1 x)) )))

;; "range_axiom"
(assert
  (forall ((x character))
    (! (in_range3 (to_rep1 x)) :pattern ((to_rep1 x)) )))

;; "coerce_axiom"
(assert
  (forall ((x Int))
    (! (=> (in_range3 x) (= (to_rep1 (of_rep1 x)) x)) :pattern ((to_rep1
                                                                  (of_rep1 x))) )))

;; "to_rep"
(define-fun to_rep2 ((x integer)) Int
  (integerqtint x))

;; "of_rep"
(declare-fun of_rep2 (Int) integer)

;; "inversion_axiom"
(assert
  (forall ((x integer))
    (! (= (of_rep2 (to_rep2 x)) x) :pattern ((to_rep2 x)) )))

;; "range_axiom"
(assert
  (forall ((x integer)) (! (in_range (to_rep2 x)) :pattern ((to_rep2 x)) )))

;; "coerce_axiom"
(assert
  (forall ((x Int))
    (! (=> (in_range x) (= (to_rep2 (of_rep2 x)) x)) :pattern ((to_rep2
                                                                 (of_rep2 x))) )))

(declare-const value__size Int)

(declare-const object__size Int)

(declare-const component__size Int)

(declare-const alignment Int)

;; "value__size_axiom"
(assert (<= 0 value__size))

;; "object__size_axiom"
(assert (<= 0 object__size))

;; "component__size_axiom"
(assert (<= 0 component__size))

;; "alignment_axiom"
(assert (<= 0 alignment))

(declare-const value__size1 Int)

(declare-const object__size1 Int)

(declare-const component__size1 Int)

(declare-const alignment1 Int)

;; "value__size_axiom"
(assert (<= 0 value__size1))

;; "object__size_axiom"
(assert (<= 0 object__size1))

;; "component__size_axiom"
(assert (<= 0 component__size1))

;; "alignment_axiom"
(assert (<= 0 alignment1))

(declare-const v (_ BitVec 32))

(declare-const lst Int)

(declare-const res__first integer)

(declare-const res__last integer)

(declare-const attr__ATTRIBUTE_MODULUS (_ BitVec 8))

(declare-const attr__ATTRIBUTE_MODULUS1 (_ BitVec 32))

(declare-const value__size2 Int)

(declare-const object__size2 Int)

(declare-const component__size2 Int)

(declare-const alignment2 Int)

;; "value__size_axiom"
(assert (<= 0 value__size2))

;; "object__size_axiom"
(assert (<= 0 object__size2))

;; "component__size_axiom"
(assert (<= 0 component__size2))

;; "alignment_axiom"
(assert (<= 0 alignment2))

(declare-const value__size3 Int)

(declare-const object__size3 Int)

(declare-const component__size3 Int)

(declare-const alignment3 Int)

;; "value__size_axiom"
(assert (<= 0 value__size3))

;; "object__size_axiom"
(assert (<= 0 object__size3))

;; "component__size_axiom"
(assert (<= 0 component__size3))

;; "alignment_axiom"
(assert (<= 0 alignment3))

;; Goal "def'vc"
;; File "ipv4_parsing.ads", line 118, characters 0-0
(assert
  (not
  (forall ((last Int))
    (=>
      (= last 15)
      (=>
        (in_range1 last)
        (forall ((w (_ BitVec 32)))
          (=>
            (= w v)
            (forall ((i Int))
              (=>
                (= i 1)
                (forall ((o integer))
                  (=>
                    (= (to_rep2 o) 15)
                    (forall ((o1 integer))
                      (=>
                        (= (to_rep2 o1) 1)
                        (bvule (bvand w #x000000FF) ((_ zero_extend 24) #xFF)))))))))))))))

(check-sat)
(get-info :reason-unknown)
